50
0 0 0 0 0 4 3 0 0 0 0 1 0 0 0 0 0 0 0 0 0 0 0 0 0 2 0 0 0 0 0 0 0 0 0 0 1 0 0 0 0 0 0 0 0 0 6 0 0 0 
0 0 0 0 0 2 4 0 0 0 0 0 0 0 0 0 0 0 0 0 0 0 2 0 0 6 0 0 0 2 0 0 0 0 0 0 0 0 0 0 0 0 0 0 0 0 1 0 0 0 
0 0 0 0 0 0 -1 0 -10 -10 -10 0 0 3 0 0 0 0 0 0 0 0 0 0 0 0 0 0 0 0 0 0 0 0 0 0 0 -1 0 0 0 0 0 0 0 0 0 0 0 0 
0 -10 0 0 0 -10 -10 1 0 0 0 0 0 0 0 0 0 0 0 1 0 -10 0 0 0 0 0 0 0 0 0 0 -10 0 0 -10 0 0 0 0 0 0 0 0 1 0 0 0 0 0 
0 0 0 0 0 0 2 0 0 0 0 1 0 0 0 0 8 0 -10 0 0 2 0 0 0 0 0 0 0 0 0 0 0 0 0 0 4 0 0 0 0 0 0 0 0 0 0 0 0 0 
3 3 0 0 0 0 10 0 0 0 0 0 0 0 0 0 0 0 0 0 0 0 0 0 0 4 0 0 0 1 0 0 0 0 0 6 1 0 0 0 0 1 0 0 0 0 10 0 0 0 
1 2 1 0 10 10 0 0 0 -10 0 1 0 1 0 0 10 0 1 0 0 5 2 2 0 0 0 4 3 5 0 0 2 0 0 6 0 3 0 0 0 1 2 0 0 0 2 0 0 0 
0 -10 0 0 0 -10 0 0 0 0 0 0 0 0 0 0 0 0 0 0 0 -10 0 0 0 0 0 0 0 0 0 0 0 0 0 0 0 0 0 0 0 0 0 0 0 0 0 0 0 0 
0 0 -10 0 0 0 0 0 0 -10 10 0 0 0 0 0 0 0 0 0 0 -10 0 0 0 0 -10 0 0 0 0 0 0 0 0 0 0 0 0 0 0 0 0 0 0 0 0 0 0 0 
0 0 0 0 5 0 0 0 -10 0 -10 1 0 0 0 0 0 0 0 0 0 0 4 2 0 0 0 7 0 0 0 0 0 0 0 2 0 0 0 0 0 1 1 0 0 0 0 0 0 0 
0 0 -10 0 0 0 0 0 10 -10 0 -10 0 0 0 0 0 0 -10 0 0 -10 0 0 0 0 -10 0 0 0 0 0 0 0 0 0 0 0 0 0 0 0 0 0 0 0 0 0 0 0 
1 0 9 0 0 0 1 0 -10 -1 -10 0 0 -1 0 0 0 0 0 0 0 -2 -1 0 0 0 0 0 0 0 0 0 1 0 0 2 1 1 0 0 0 1 1 0 0 0 5 0 0 0 
-10 -10 0 1 0 -10 -10 1 0 0 0 0 0 0 1 0 0 1 0 3 1 -10 0 0 0 0 0 0 0 0 0 0 -10 0 0 -10 0 0 0 0 0 0 0 0 1 0 0 0 0 0 
0 0 2 0 0 0 2 0 0 0 0 -1 0 0 0 0 0 0 0 0 0 1 0 0 0 0 0 1 1 0 0 0 4 0 0 2 -1 -2 0 0 0 0 1 0 0 0 1 0 0 0 
0 -10 0 0 0 -10 -10 0 0 0 0 0 0 0 0 0 0 0 0 0 0 0 0 0 0 0 0 0 0 0 0 0 0 0 0 0 0 0 0 0 0 0 0 0 0 0 0 0 0 0 
0 -10 0 1 0 -10 -10 0 0 0 0 0 0 0 1 0 0 0 0 0 0 -10 0 0 0 0 0 0 0 0 0 0 0 0 0 0 0 0 0 0 0 0 0 0 0 0 0 0 0 0 
0 0 0 0 7 0 -10 0 0 0 0 0 0 0 0 0 0 0 0 0 0 0 2 0 0 3 0 1 0 3 0 0 0 0 0 3 4 0 0 0 0 1 5 0 0 0 8 0 0 0 
-10 -10 0 1 0 -10 -10 1 0 0 0 0 1 0 1 0 0 0 0 5 1 -10 0 0 0 0 0 0 0 0 0 0 -10 0 0 -10 0 0 0 0 0 0 0 0 1 0 0 0 0 0 
0 0 0 0 0 0 5 0 0 0 0 0 0 0 0 0 0 0 0 0 0 0 0 0 0 0 0 9 5 0 0 0 0 0 0 5 0 0 0 0 0 0 3 0 0 0 0 0 0 0 
-10 -10 0 0 0 -10 -10 0 0 0 0 0 0 0 1 0 0 0 0 0 0 -10 0 0 0 0 0 0 0 0 0 0 0 0 0 0 0 0 0 0 0 0 0 0 0 0 0 0 0 0 
-10 -10 0 1 0 -10 -10 1 0 0 0 0 1 0 1 0 0 1 0 1 0 -10 0 0 0 0 0 0 0 0 0 0 -10 0 0 -10 0 0 0 0 0 0 0 0 1 0 0 0 0 0 
-7 0 0 -10 1 8 -8 -10 0 -10 0 -2 -10 5 -10 -10 3 -10 0 -10 -10 0 3 4 0 2 0 4 1 3 0 0 1 0 0 2 -8 0 0 0 0 1 1 0 -10 0 4 0 0 0 
0 2 0 0 0 0 2 0 0 8 0 0 0 0 0 0 4 0 0 0 0 3 0 0 0 0 0 0 1 7 0 0 0 0 0 0 0 0 0 0 0 0 0 0 0 0 0 0 0 0 
0 0 1 0 1 0 3 0 0 2 0 0 0 0 0 0 0 0 0 0 0 4 0 0 0 0 0 2 0 0 0 0 1 0 0 3 0 3 0 0 0 0 0 0 0 0 0 0 0 0 
0 0 0 0 0 0 0 0 0 0 0 0 0 0 0 0 0 0 0 0 0 0 0 0 0 0 0 0 0 0 0 0 0 0 0 0 0 0 0 0 0 0 0 0 0 0 0 0 0 0 
3 10 0 0 0 4 0 0 0 0 0 0 0 0 0 0 5 0 0 0 0 1 0 0 0 0 0 0 0 3 0 0 0 0 0 0 0 0 0 0 0 0 0 0 0 0 2 0 0 0 
0 0 0 -10 0 0 0 -10 0 0 0 0 -10 0 -10 -10 0 -10 0 -10 -10 0 0 0 0 0 0 0 0 0 0 0 0 0 0 0 0 0 0 0 0 0 0 0 -10 0 0 0 0 0 
0 0 6 0 2 0 -5 0 0 0 0 1 0 4 0 0 1 0 -10 0 0 3 0 0 0 0 0 0 4 0 0 0 2 0 0 3 0 3 0 0 0 0 5 0 0 0 2 0 1 0 
0 0 3 0 1 0 4 0 0 0 0 0 0 4 0 0 1 0 -5 0 0 1 2 0 0 0 0 8 0 0 0 0 0 0 0 6 0 2 0 0 0 0 2 0 0 0 3 0 0 0 
0 1 0 0 0 1 3 0 0 0 0 0 0 0 0 0 4 0 0 0 0 1 3 0 0 3 0 0 0 0 0 0 0 0 0 0 0 0 0 0 0 3 0 0 0 0 5 0 0 0 
0 0 0 0 0 0 0 0 0 0 0 0 0 0 0 0 0 0 0 0 0 0 0 0 0 0 0 0 0 0 0 0 0 0 0 0 0 0 0 0 0 0 0 0 0 0 0 0 0 0 
0 0 0 0 0 0 0 0 0 0 0 0 0 0 0 0 0 0 0 0 0 0 0 0 0 0 0 0 0 0 0 0 0 0 0 0 0 0 0 0 0 0 0 0 0 0 0 0 0 0 
0 0 0 -10 0 0 6 -10 0 0 0 0 -10 10 -10 -10 0 -10 0 -10 -10 2 0 1 0 0 0 0 0 0 0 0 0 0 0 0 0 0 0 0 0 0 0 0 -10 0 0 0 0 0 
0 0 0 0 0 0 0 0 0 0 0 0 0 0 0 0 0 0 0 0 0 0 0 0 0 0 0 0 0 0 0 0 0 0 0 0 0 0 0 0 0 0 0 0 0 0 0 0 0 0 
0 0 0 0 0 0 0 0 0 0 0 0 0 0 0 0 0 0 0 0 0 0 0 0 0 0 0 0 0 0 0 0 0 0 0 0 0 0 0 0 0 0 0 0 0 0 0 0 0 0 
0 0 0 -10 5 5 -1 0 0 0 0 2 -10 5 0 0 5 -10 0 0 -10 2 0 -5 0 0 0 4 6 0 0 0 0 0 0 0 0 0 0 0 0 0 2 0 -10 0 5 0 0 0 
1 0 0 0 2 1 0 0 0 0 0 3 0 -10 0 0 6 0 0 0 0 10 0 0 0 0 0 0 0 0 0 0 0 0 0 0 0 10 0 0 0 0 0 0 0 0 0 0 0 0 
0 0 -10 0 3 0 -1 0 0 0 0 0 0 -10 0 0 0 0 -1 0 0 0 0 1 0 0 0 10 0 0 0 0 0 0 0 1 1 0 0 0 0 0 0 0 0 0 0 0 0 0 
0 0 0 0 0 0 0 0 0 0 0 0 0 0 0 0 0 0 0 0 0 0 0 0 0 0 0 0 0 0 0 0 0 0 0 0 0 0 0 0 0 0 0 0 0 0 0 0 0 0 
0 0 0 0 0 0 0 0 0 0 0 0 0 0 0 0 0 0 0 0 0 0 0 0 0 0 0 0 0 0 0 0 0 0 0 0 0 0 0 0 0 0 0 0 0 0 0 0 0 0 
0 0 0 0 0 0 0 0 0 0 0 0 0 0 0 0 0 0 0 0 0 0 0 0 0 0 0 0 0 0 0 0 0 0 0 0 0 0 0 0 0 0 0 0 0 0 0 0 0 0 
0 0 0 0 0 1 2 0 0 1 0 0 0 0 0 0 1 0 0 0 0 1 0 0 0 0 0 0 0 4 0 0 0 0 0 1 0 0 0 0 0 0 0 0 0 0 1 0 0 0 
0 0 0 0 0 0 2 0 0 1 0 0 0 2 0 0 9 0 4 0 0 1 0 0 0 0 0 10 2 0 0 0 0 0 0 2 0 0 0 0 0 0 0 0 0 0 0 0 0 0 
0 0 0 0 0 0 0 0 0 0 0 0 0 0 0 0 0 0 0 0 0 0 0 0 0 0 0 0 0 0 0 0 0 0 0 0 0 0 0 0 0 0 0 0 0 0 0 0 0 0 
-10 -10 0 1 0 -10 -10 0 0 0 0 0 0 0 1 0 0 0 0 1 0 -10 0 0 0 0 0 0 0 0 0 0 -10 0 0 -10 0 0 0 0 0 0 0 0 0 0 0 0 0 0 
0 0 0 0 0 0 0 0 0 0 0 0 0 0 0 0 0 0 0 0 0 0 0 0 0 0 0 0 0 0 0 0 0 0 0 0 0 0 0 0 0 0 0 0 0 0 0 0 0 0 
5 1 0 0 0 10 1 0 0 0 0 3 0 1 0 0 8 0 0 0 0 5 0 0 0 2 0 4 3 7 0 0 0 0 0 3 0 1 0 0 0 1 1 0 0 0 0 0 0 0 
0 0 0 0 0 0 0 0 0 0 0 0 0 0 0 0 0 0 0 0 0 0 0 0 0 0 0 0 0 0 0 0 0 0 0 0 0 0 0 0 0 0 0 0 0 0 0 0 0 0 
0 10 0 -10 0 0 0 -10 0 0 0 0 -10 0 -10 -10 0 -10 0 -10 -10 1 0 0 0 0 0 3 0 0 0 0 0 0 0 0 0 0 0 0 0 0 0 0 -10 0 0 0 0 0 
0 0 0 0 0 0 0 0 0 0 0 0 0 0 0 0 0 0 0 0 0 0 0 0 0 0 0 0 0 0 0 0 0 0 0 0 0 0 0 0 0 0 0 0 0 0 0 0 0 0 

BitCoin Vertices:
4694, 4635, 1363, 4683, 1953, 3897, 905, 4684, 3757, 2028, 3756, 2388, 4680, 135, 4707, 4675, 4172, 4681, 1383, 4688, 4682, 1810, 2063, 1967, 1363, 4499, 3793, 1, 1396, 4197, 2388, 4688, 1815, 1953, 3793, 1565, 3903, 1352, 4682, 2028, 135, 550, 353, 4683, 4686, 3897, 4291, 4197, 4458, 905
NUM EDGES NEG = 134
NUM EDGES POS = 256